# Solution for model probrema
# Objective value = 2.2050810842412733e+05
X_0_20_15 0
X_0_20_16 0
X_0_20_17 0
X_0_20_18 0
X_0_20_19 586
X_0_21_15 0
X_0_21_16 0
X_0_21_17 0
X_0_21_18 0
X_0_21_19 326
X_0_22_15 0
X_0_22_16 0
X_0_22_17 0
X_0_22_18 0
X_0_22_19 862
X_0_23_15 0
X_0_23_16 0
X_0_23_17 0
X_0_23_18 0
X_0_23_19 1
X_0_24_15 0
X_0_24_16 0
X_0_24_17 0
X_0_24_18 0
X_0_24_19 653
X_0_25_15 0
X_0_25_16 0
X_0_25_17 0
X_0_25_18 0
X_0_25_19 648
X_0_26_15 0
X_0_26_16 0
X_0_26_17 0
X_0_26_18 0
X_0_26_19 321
X_0_27_15 0
X_0_27_16 0
X_0_27_17 0
X_0_27_18 0
X_0_27_19 589
X_1_20_15 0
X_1_20_16 0
X_1_20_17 0
X_1_20_18 0
X_1_20_19 0
X_1_21_15 0
X_1_21_16 0
X_1_21_17 0
X_1_21_18 0
X_1_21_19 0
X_1_22_15 0
X_1_22_16 0
X_1_22_17 0
X_1_22_18 0
X_1_22_19 0
X_1_23_15 0
X_1_23_16 0
X_1_23_17 0
X_1_23_18 0
X_1_23_19 0
X_1_24_15 0
X_1_24_16 0
X_1_24_17 0
X_1_24_18 0
X_1_24_19 0
X_1_25_15 0
X_1_25_16 0
X_1_25_17 0
X_1_25_18 0
X_1_25_19 0
X_1_26_15 0
X_1_26_16 0
X_1_26_17 0
X_1_26_18 0
X_1_26_19 0
X_1_27_15 0
X_1_27_16 0
X_1_27_17 0
X_1_27_18 0
X_1_27_19 0
X_2_20_15 0
X_2_20_16 0
X_2_20_17 0
X_2_20_18 0
X_2_20_19 0
X_2_21_15 0
X_2_21_16 0
X_2_21_17 0
X_2_21_18 0
X_2_21_19 0
X_2_22_15 0
X_2_22_16 0
X_2_22_17 0
X_2_22_18 0
X_2_22_19 0
X_2_23_15 0
X_2_23_16 0
X_2_23_17 0
X_2_23_18 0
X_2_23_19 0
X_2_24_15 0
X_2_24_16 0
X_2_24_17 0
X_2_24_18 0
X_2_24_19 0
X_2_25_15 0
X_2_25_16 0
X_2_25_17 0
X_2_25_18 0
X_2_25_19 0
X_2_26_15 0
X_2_26_16 0
X_2_26_17 0
X_2_26_18 0
X_2_26_19 0
X_2_27_15 0
X_2_27_16 0
X_2_27_17 0
X_2_27_18 0
X_2_27_19 0
X_3_20_15 0
X_3_20_16 0
X_3_20_17 0
X_3_20_18 0
X_3_20_19 0
X_3_21_15 0
X_3_21_16 0
X_3_21_17 0
X_3_21_18 0
X_3_21_19 0
X_3_22_15 0
X_3_22_16 0
X_3_22_17 0
X_3_22_18 0
X_3_22_19 0
X_3_23_15 0
X_3_23_16 0
X_3_23_17 0
X_3_23_18 0
X_3_23_19 0
X_3_24_15 0
X_3_24_16 0
X_3_24_17 0
X_3_24_18 0
X_3_24_19 0
X_3_25_15 0
X_3_25_16 0
X_3_25_17 0
X_3_25_18 0
X_3_25_19 0
X_3_26_15 0
X_3_26_16 0
X_3_26_17 0
X_3_26_18 0
X_3_26_19 0
X_3_27_15 0
X_3_27_16 0
X_3_27_17 0
X_3_27_18 0
X_3_27_19 0
X_4_20_15 0
X_4_20_16 0
X_4_20_17 0
X_4_20_18 0
X_4_20_19 0
X_4_21_15 0
X_4_21_16 0
X_4_21_17 0
X_4_21_18 0
X_4_21_19 0
X_4_22_15 0
X_4_22_16 0
X_4_22_17 0
X_4_22_18 0
X_4_22_19 0
X_4_23_15 0
X_4_23_16 0
X_4_23_17 0
X_4_23_18 0
X_4_23_19 0
X_4_24_15 0
X_4_24_16 0
X_4_24_17 0
X_4_24_18 0
X_4_24_19 0
X_4_25_15 0
X_4_25_16 0
X_4_25_17 0
X_4_25_18 0
X_4_25_19 0
X_4_26_15 0
X_4_26_16 0
X_4_26_17 0
X_4_26_18 0
X_4_26_19 0
X_4_27_15 0
X_4_27_16 0
X_4_27_17 0
X_4_27_18 0
X_4_27_19 0
X_5_20_15 0
X_5_20_16 0
X_5_20_17 0
X_5_20_18 0
X_5_20_19 0
X_5_21_15 0
X_5_21_16 0
X_5_21_17 0
X_5_21_18 0
X_5_21_19 0
X_5_22_15 0
X_5_22_16 0
X_5_22_17 0
X_5_22_18 0
X_5_22_19 0
X_5_23_15 0
X_5_23_16 0
X_5_23_17 0
X_5_23_18 0
X_5_23_19 0
X_5_24_15 0
X_5_24_16 0
X_5_24_17 0
X_5_24_18 0
X_5_24_19 0
X_5_25_15 0
X_5_25_16 0
X_5_25_17 0
X_5_25_18 0
X_5_25_19 0
X_5_26_15 0
X_5_26_16 0
X_5_26_17 0
X_5_26_18 0
X_5_26_19 0
X_5_27_15 0
X_5_27_16 0
X_5_27_17 0
X_5_27_18 0
X_5_27_19 0
X_6_20_15 0
X_6_20_16 0
X_6_20_17 0
X_6_20_18 0
X_6_20_19 0
X_6_21_15 0
X_6_21_16 0
X_6_21_17 0
X_6_21_18 0
X_6_21_19 0
X_6_22_15 0
X_6_22_16 0
X_6_22_17 0
X_6_22_18 0
X_6_22_19 0
X_6_23_15 0
X_6_23_16 0
X_6_23_17 0
X_6_23_18 0
X_6_23_19 727
X_6_24_15 0
X_6_24_16 0
X_6_24_17 0
X_6_24_18 0
X_6_24_19 0
X_6_25_15 0
X_6_25_16 0
X_6_25_17 0
X_6_25_18 0
X_6_25_19 0
X_6_26_15 0
X_6_26_16 0
X_6_26_17 0
X_6_26_18 0
X_6_26_19 0
X_6_27_15 0
X_6_27_16 0
X_6_27_17 0
X_6_27_18 0
X_6_27_19 0
X_7_20_15 0
X_7_20_16 0
X_7_20_17 0
X_7_20_18 0
X_7_20_19 0
X_7_21_15 0
X_7_21_16 0
X_7_21_17 0
X_7_21_18 0
X_7_21_19 0
X_7_22_15 0
X_7_22_16 0
X_7_22_17 0
X_7_22_18 0
X_7_22_19 0
X_7_23_15 0
X_7_23_16 0
X_7_23_17 0
X_7_23_18 0
X_7_23_19 0
X_7_24_15 0
X_7_24_16 0
X_7_24_17 0
X_7_24_18 0
X_7_24_19 0
X_7_25_15 0
X_7_25_16 0
X_7_25_17 0
X_7_25_18 0
X_7_25_19 0
X_7_26_15 0
X_7_26_16 0
X_7_26_17 0
X_7_26_18 0
X_7_26_19 0
X_7_27_15 0
X_7_27_16 0
X_7_27_17 0
X_7_27_18 0
X_7_27_19 0
X_8_20_15 0
X_8_20_16 0
X_8_20_17 0
X_8_20_18 0
X_8_20_19 0
X_8_21_15 0
X_8_21_16 0
X_8_21_17 0
X_8_21_18 0
X_8_21_19 0
X_8_22_15 0
X_8_22_16 0
X_8_22_17 0
X_8_22_18 0
X_8_22_19 0
X_8_23_15 0
X_8_23_16 0
X_8_23_17 0
X_8_23_18 0
X_8_23_19 0
X_8_24_15 0
X_8_24_16 0
X_8_24_17 0
X_8_24_18 0
X_8_24_19 0
X_8_25_15 0
X_8_25_16 0
X_8_25_17 0
X_8_25_18 0
X_8_25_19 0
X_8_26_15 0
X_8_26_16 0
X_8_26_17 0
X_8_26_18 0
X_8_26_19 0
X_8_27_15 0
X_8_27_16 0
X_8_27_17 0
X_8_27_18 0
X_8_27_19 0
X_9_20_15 0
X_9_20_16 0
X_9_20_17 0
X_9_20_18 0
X_9_20_19 0
X_9_21_15 0
X_9_21_16 0
X_9_21_17 0
X_9_21_18 0
X_9_21_19 0
X_9_22_15 0
X_9_22_16 0
X_9_22_17 0
X_9_22_18 0
X_9_22_19 0
X_9_23_15 0
X_9_23_16 0
X_9_23_17 0
X_9_23_18 0
X_9_23_19 0
X_9_24_15 0
X_9_24_16 0
X_9_24_17 0
X_9_24_18 0
X_9_24_19 0
X_9_25_15 0
X_9_25_16 0
X_9_25_17 0
X_9_25_18 0
X_9_25_19 0
X_9_26_15 0
X_9_26_16 0
X_9_26_17 0
X_9_26_18 0
X_9_26_19 0
X_9_27_15 0
X_9_27_16 0
X_9_27_17 0
X_9_27_18 0
X_9_27_19 0
X_10_20_15 0
X_10_20_16 0
X_10_20_17 0
X_10_20_18 0
X_10_20_19 0
X_10_21_15 0
X_10_21_16 0
X_10_21_17 0
X_10_21_18 0
X_10_21_19 0
X_10_22_15 0
X_10_22_16 0
X_10_22_17 0
X_10_22_18 0
X_10_22_19 0
X_10_23_15 0
X_10_23_16 0
X_10_23_17 0
X_10_23_18 0
X_10_23_19 0
X_10_24_15 0
X_10_24_16 0
X_10_24_17 0
X_10_24_18 0
X_10_24_19 0
X_10_25_15 0
X_10_25_16 0
X_10_25_17 0
X_10_25_18 0
X_10_25_19 0
X_10_26_15 0
X_10_26_16 0
X_10_26_17 0
X_10_26_18 0
X_10_26_19 0
X_10_27_15 0
X_10_27_16 0
X_10_27_17 0
X_10_27_18 0
X_10_27_19 0
X_11_20_15 0
X_11_20_16 0
X_11_20_17 0
X_11_20_18 0
X_11_20_19 0
X_11_21_15 0
X_11_21_16 0
X_11_21_17 0
X_11_21_18 0
X_11_21_19 0
X_11_22_15 0
X_11_22_16 0
X_11_22_17 0
X_11_22_18 0
X_11_22_19 0
X_11_23_15 0
X_11_23_16 0
X_11_23_17 0
X_11_23_18 0
X_11_23_19 0
X_11_24_15 0
X_11_24_16 0
X_11_24_17 0
X_11_24_18 0
X_11_24_19 0
X_11_25_15 0
X_11_25_16 0
X_11_25_17 0
X_11_25_18 0
X_11_25_19 0
X_11_26_15 0
X_11_26_16 0
X_11_26_17 0
X_11_26_18 0
X_11_26_19 0
X_11_27_15 0
X_11_27_16 0
X_11_27_17 0
X_11_27_18 0
X_11_27_19 0
X_12_20_15 0
X_12_20_16 0
X_12_20_17 0
X_12_20_18 0
X_12_20_19 0
X_12_21_15 0
X_12_21_16 0
X_12_21_17 0
X_12_21_18 0
X_12_21_19 0
X_12_22_15 0
X_12_22_16 0
X_12_22_17 0
X_12_22_18 0
X_12_22_19 0
X_12_23_15 0
X_12_23_16 0
X_12_23_17 0
X_12_23_18 0
X_12_23_19 0
X_12_24_15 0
X_12_24_16 0
X_12_24_17 0
X_12_24_18 0
X_12_24_19 0
X_12_25_15 0
X_12_25_16 0
X_12_25_17 0
X_12_25_18 0
X_12_25_19 0
X_12_26_15 0
X_12_26_16 0
X_12_26_17 0
X_12_26_18 0
X_12_26_19 0
X_12_27_15 0
X_12_27_16 0
X_12_27_17 0
X_12_27_18 0
X_12_27_19 0
X_13_20_15 0
X_13_20_16 0
X_13_20_17 0
X_13_20_18 0
X_13_20_19 0
X_13_21_15 0
X_13_21_16 0
X_13_21_17 0
X_13_21_18 0
X_13_21_19 0
X_13_22_15 0
X_13_22_16 0
X_13_22_17 0
X_13_22_18 0
X_13_22_19 0
X_13_23_15 0
X_13_23_16 0
X_13_23_17 0
X_13_23_18 0
X_13_23_19 0
X_13_24_15 0
X_13_24_16 0
X_13_24_17 0
X_13_24_18 0
X_13_24_19 0
X_13_25_15 0
X_13_25_16 0
X_13_25_17 0
X_13_25_18 0
X_13_25_19 0
X_13_26_15 0
X_13_26_16 0
X_13_26_17 0
X_13_26_18 0
X_13_26_19 0
X_13_27_15 0
X_13_27_16 0
X_13_27_17 0
X_13_27_18 0
X_13_27_19 0
X_14_20_15 0
X_14_20_16 0
X_14_20_17 0
X_14_20_18 0
X_14_20_19 0
X_14_21_15 0
X_14_21_16 0
X_14_21_17 0
X_14_21_18 0
X_14_21_19 0
X_14_22_15 0
X_14_22_16 0
X_14_22_17 0
X_14_22_18 0
X_14_22_19 0
X_14_23_15 0
X_14_23_16 0
X_14_23_17 0
X_14_23_18 0
X_14_23_19 0
X_14_24_15 0
X_14_24_16 0
X_14_24_17 0
X_14_24_18 0
X_14_24_19 0
X_14_25_15 0
X_14_25_16 0
X_14_25_17 0
X_14_25_18 0
X_14_25_19 0
X_14_26_15 0
X_14_26_16 0
X_14_26_17 0
X_14_26_18 0
X_14_26_19 0
X_14_27_15 0
X_14_27_16 0
X_14_27_17 0
X_14_27_18 0
X_14_27_19 0
